Traveling Salesman Problem/TSP_generados/Aleatorio1620390906_8.tsp
NAME: Aleatorio1620390906_8.tsp
COMMENT: Randomly generated scenario
TYPE: TSP
DIMENSION: 8
EDGE_WEIGHT_TYPE: ATT
NODE_COORD_SECTION
1 20.95 6.99
2 23.33 29.96
3 24.78 41.73
4 41.54 37.3
5 22.33 1.15
6 28.96 47.36
7 48.7 41.67
8 10.19 8.6
