Traveling Salesman Problem/TSP_generados/Aleatorio1620390906_8.opt.tour
NAME: Aleatorio1620390906_8.opt.tour
COMMENT: Optimal solution for Aleatorio1620390906_8 (129.76767398335897)
TYPE: TOUR
DIMENSION: 8
TOUR_SECTION
1 5 8 2 3 6 7 4
-1
EOF
